Version identifier: 22.1.0.0 | 2022-03-09 | 1a383f8ce
CPXPARAM_Threads                                 1
CPXPARAM_MIP_Strategy_VariableSelect             3
CPXPARAM_TimeLimit                               600
Tried aggregator 1 time.
Reduced MIP has 1224 rows, 6800 columns, and 54086 nonzeros.
Reduced MIP has 5800 binaries, 1000 generals, 0 SOSs, and 0 indicators.
Presolve time = 0.03 sec. (21.32 ticks)
Found incumbent of value 1.012000 after 0.09 sec. (53.80 ticks)
Probing time = 0.00 sec. (6.66 ticks)
Tried aggregator 1 time.
Detecting symmetries...
Reduced MIP has 1224 rows, 6800 columns, and 54086 nonzeros.
Reduced MIP has 5800 binaries, 1000 generals, 0 SOSs, and 0 indicators.
Presolve time = 0.03 sec. (26.41 ticks)
Probing time = 0.00 sec. (6.66 ticks)
Clique table members: 202.
MIP emphasis: balance optimality and feasibility.
MIP search method: dynamic search.
Parallel mode: none, using 1 thread.
Root relaxation solution time = 0.59 sec. (663.34 ticks)

        Nodes                                         Cuts/
   Node  Left     Objective  IInf  Best Integer    Best Bound    ItCnt     Gap

*     0+    0                            1.0120        0.0000           100.00%
      0     0        0.0000  1130        1.0120        0.0000     3359  100.00%
      0     0        0.0000   634        1.0120   ZeroHalf: 1     3611  100.00%
      0     0        0.0000   773        1.0120      Cuts: 57     6935  100.00%
      0     0        0.0000   751        1.0120   ZeroHalf: 2    11471  100.00%
*     0+    0                            0.2670        0.0000           100.00%
*     0+    0                            0.2540        0.0000           100.00%
      0     0        0.0000   468        0.2540   ZeroHalf: 2    11705  100.00%
      0     0        0.0000   564        0.2540  ZeroHalf: 63    14447  100.00%
Detecting symmetries...
*     0+    0                            0.2290        0.0000           100.00%
*     0+    0                            0.2160        0.0000           100.00%
Detecting symmetries...
      0     2        0.0000   485        0.2160        0.0000    14447  100.00%
Elapsed time = 20.40 sec. (24279.92 ticks, tree = 0.01 MB, solutions = 5)
      1     3        0.0010   630        0.2160        0.0000    20627  100.00%
      2     4        0.0000   765        0.2160        0.0000    24505  100.00%
      3     5        0.0000   700        0.2160        0.0000    28001  100.00%
      4     6        0.0000   659        0.2160        0.0000    30470  100.00%
      5     7        0.0001  1028        0.2160        0.0000    35699  100.00%
      6     8       -0.0000   734        0.2160        0.0000    37452  100.00%
      7     9       -0.0000   739        0.2160        0.0000    37756  100.00%
      8    10       -0.0000   992        0.2160        0.0000    39542  100.00%
      9    11       -0.0000   739        0.2160        0.0000    39544  100.00%
     12    14        0.0000  1116        0.2160        0.0000    41443  100.00%
Elapsed time = 28.11 sec. (33693.51 ticks, tree = 0.10 MB, solutions = 5)
     14    16       -0.0000  1003        0.2160        0.0000    45019  100.00%
     18    20       -0.0000   989        0.2160        0.0000    46274  100.00%
     20    22       -0.0000   988        0.2160        0.0000    46462  100.00%
     24    26        0.0000   908        0.2160        0.0000    49327  100.00%
     26    28       -0.0000   829        0.2160        0.0000    53547  100.00%
     29    31        0.0000   792        0.2160        0.0000    58195  100.00%
*    30+   30                            0.1270        0.0000           100.00%
     30    32       -0.0000   789        0.1270        0.0000    58400  100.00%
     34    36        0.0000   719        0.1270        0.0000    64891  100.00%
     36    38        0.0000   469        0.1270        0.0000    68063  100.00%
     39    41        0.0010   432        0.1270        0.0000    71228  100.00%
Elapsed time = 39.59 sec. (47310.89 ticks, tree = 0.43 MB, solutions = 6)
     41    43        0.0000   491        0.1270        0.0000    73668  100.00%
     44    46        0.0004   389        0.1270        0.0000    93533  100.00%
     47    49        0.0010   352        0.1270        0.0000    97040  100.00%
     49    51        0.0016   451        0.1270        0.0000   105904  100.00%
*    50+   50                            0.0540        0.0000           100.00%
     50    52        0.0012   466        0.0540        0.0000   110652  100.00%
     52    54        0.0010   295        0.0540        0.0000   113087  100.00%
     55    57        0.0020   316        0.0540        0.0000   118660  100.00%
     58    60        0.0022   399        0.0540        0.0000   128061  100.00%
     60    62        0.0024   332        0.0540        0.0000   130717  100.00%
     63    65        0.0027   225        0.0540        0.0000   135357  100.00%
Elapsed time = 51.44 sec. (60828.46 ticks, tree = 0.57 MB, solutions = 7)
     66    68        0.0027   269        0.0540        0.0000   137900  100.00%
     69    71        0.0027   458        0.0540        0.0000   141050  100.00%
     71    73        0.0034   423        0.0540        0.0000   144865  100.00%
     73    75        0.0035   219        0.0540        0.0000   148276  100.00%
     76    78        0.0042   423        0.0540        0.0000   151338  100.00%
     79    81        0.0040   367        0.0540        0.0000   154540  100.00%
     82    84        0.0050   439        0.0540        0.0000   157515  100.00%
     86    88        0.0050   334        0.0540        0.0000   159082  100.00%
*    90+   90                            0.0180        0.0000           100.00%
     90    92        0.0058   381        0.0180        0.0000   160677  100.00%
     95    97        0.0058   353        0.0180        0.0000   162275  100.00%
Elapsed time = 61.41 sec. (71957.10 ticks, tree = 0.85 MB, solutions = 8)
     98   100        0.0060   345        0.0180        0.0000   165798  100.00%
    103   105        0.0075   263        0.0180        0.0000   167915  100.00%
    109   111        0.0090   251        0.0180        0.0000   169524  100.00%
    110   112        0.0080   270        0.0180        0.0000   169862  100.00%
    116   118        0.0090   278        0.0180        0.0000   171403  100.00%
    121   123        0.0092   463        0.0180        0.0000   173488  100.00%
    127   129        0.0110   209        0.0180        0.0000   174902  100.00%
    133   135        0.0110   142        0.0180        0.0000   176316  100.00%
    138   140        0.0110   138        0.0180        0.0000   178907  100.00%
    141   143        0.0111   320        0.0180        0.0000   183590  100.00%
Elapsed time = 71.46 sec. (82554.34 ticks, tree = 1.41 MB, solutions = 8)
    145   147        0.0110    46        0.0180        0.0000   186900  100.00%
*   147   136      integral     0        0.0120        0.0000   187809  100.00%
    150   136    infeasible              0.0120        0.0000   192082  100.00%
    155   137        0.0004   471        0.0120        0.0000   197100  100.00%
    158   140        0.0007   492        0.0120        0.0000   199119  100.00%
    160   142        0.0017   479        0.0120        0.0000   200888  100.00%
    163   145        0.0022   462        0.0120        0.0000   203186  100.00%
    167   149        0.0025   463        0.0120        0.0000   204153  100.00%
    171   153        0.0035   444        0.0120        0.0000   205650  100.00%
    174   156        0.0045   429        0.0120        0.0000   208152  100.00%
    177   159        0.0050   437        0.0120        0.0000   211966  100.00%
Elapsed time = 81.44 sec. (93718.44 ticks, tree = 1.62 MB, solutions = 9)
    181   163        0.0060   422        0.0120        0.0000   213482  100.00%
    185   167        0.0070   422        0.0120        0.0000   215157  100.00%
    190   172        0.0080   360        0.0120        0.0000   215981  100.00%
    196   178        0.0090   273        0.0120        0.0000   217366  100.00%
    202   184        0.0110   276        0.0120        0.0000   219132  100.00%
    208   190        0.0110   216        0.0120        0.0000   221091  100.00%
    217   196        0.0110    89        0.0120        0.0000   222518  100.00%
    222   199        0.0110   179        0.0120        0.0000   225179  100.00%
    226   203        0.0110   164        0.0120        0.0000   228058  100.00%
    232   205        0.0110   186        0.0120        0.0000   229929  100.00%
Elapsed time = 91.40 sec. (104399.99 ticks, tree = 2.20 MB, solutions = 9)
    239   208        0.0110   199        0.0120        0.0000   232614  100.00%
*   247+  167                            0.0110        0.0000           100.00%
    247   166        0.0110     0        0.0110        0.0000   233872  100.00%
    248   167        0.0000   439        0.0110        0.0000   237439  100.00%
    250   169        0.0001   492        0.0110        0.0000   237750  100.00%
    255   174        0.0001   532        0.0110        0.0000   238169  100.00%
    260   179        0.0002   546        0.0110        0.0000   238667  100.00%
    264   183        0.0003   367        0.0110        0.0000   240884  100.00%
    268   187        0.0008   477        0.0110        0.0000   245779  100.00%
    271   190        0.0012   691        0.0110        0.0000   248100  100.00%
    275   194        0.0014   557        0.0110        0.0000   249906  100.00%
Elapsed time = 102.59 sec. (116520.31 ticks, tree = 2.05 MB, solutions = 10)
    277   196        0.0015   704        0.0110        0.0000   252485  100.00%
    280   199        0.0016   705        0.0110        0.0000   253997  100.00%
    284   203        0.0016   701        0.0110        0.0000   254226  100.00%
    288   207        0.0017   714        0.0110        0.0000   254613  100.00%
    293   212        0.0017   691        0.0110        0.0000   255225  100.00%
    298   217        0.0017   709        0.0110        0.0000   255783  100.00%
    301   220        0.0017   693        0.0110        0.0000   255861  100.00%
    306   225        0.0017   687        0.0110        0.0000   256406  100.00%
    310   229        0.0018   669        0.0110        0.0000   257380  100.00%
    315   234        0.0018   643        0.0110        0.0000   257796  100.00%
Elapsed time = 112.25 sec. (127387.62 ticks, tree = 2.54 MB, solutions = 10)
    320   239        0.0019   749        0.0110        0.0000   258845  100.00%
    324   243        0.0020   608        0.0110        0.0000   259762  100.00%
    328   247        0.0020   623        0.0110        0.0000   260733  100.00%
    332   251        0.0020   585        0.0110        0.0000   261252  100.00%
    336   255        0.0020   606        0.0110        0.0000   261677  100.00%
    340   259        0.0020   592        0.0110        0.0000   262153  100.00%
    344   263        0.0020   324        0.0110        0.0000   264627  100.00%
    348   267        0.0020   555        0.0110        0.0000   267039  100.00%
    353   272        0.0021   511        0.0110        0.0000   268157  100.00%
    367   286        0.0023   558        0.0110        0.0000   271938  100.00%
Elapsed time = 126.31 sec. (142419.57 ticks, tree = 3.19 MB, solutions = 10)
    382   301        0.0025   590        0.0110        0.0000   276756  100.00%
    400   319        0.0026   587        0.0110        0.0000   278659  100.00%
    410   329        0.0008   648        0.0110        0.0000   287626  100.00%
    426   345        0.0011   666        0.0110        0.0000   290431  100.00%
    440   359        0.0013   623        0.0110        0.0000   296032  100.00%
    455   374        0.0015   641        0.0110        0.0000   301654  100.00%
    471   390        0.0016   672        0.0110        0.0000   307487  100.00%
    484   403        0.0020   517        0.0110        0.0000   312152  100.00%
    505   424        0.0021   602        0.0110        0.0000   314065  100.00%
    511   430        0.0000   455        0.0110        0.0000   327231  100.00%
Elapsed time = 174.17 sec. (193606.07 ticks, tree = 4.97 MB, solutions = 10)

Performing restart 1

Repeating presolve.
Tried aggregator 1 time.
MIP Presolve modified 54179 coefficients.
Reduced MIP has 1224 rows, 6800 columns, and 39029 nonzeros.
Reduced MIP has 5802 binaries, 998 generals, 0 SOSs, and 0 indicators.
Presolve time = 0.05 sec. (55.95 ticks)
Tried aggregator 1 time.
Reduced MIP has 1224 rows, 6800 columns, and 39029 nonzeros.
Reduced MIP has 5802 binaries, 998 generals, 0 SOSs, and 0 indicators.
Presolve time = 0.03 sec. (21.07 ticks)
Represolve time = 0.23 sec. (169.75 ticks)
    513     0        0.0000   658        0.0110   ZeroHalf: 3   334522  100.00%
    513     0        0.0000   567        0.0110       Cuts: 6   336107  100.00%
    513     0        0.0000   739        0.0110     Cuts: 179   339865  100.00%
    513     0        0.0000   743        0.0110      Cuts: 10   342810  100.00%
    513     0        0.0000   709        0.0110      Cuts: 17   345400  100.00%
    513     0        0.0000   970        0.0110      Cuts: 13   350157  100.00%
    513     0        0.0000   591        0.0110      Cuts: 22   353375  100.00%
    513     0        0.0000   900        0.0110      Cuts: 14   356870  100.00%
    513     2        0.0000   454        0.0110        0.0000   356870  100.00%
    516     5        0.0000   579        0.0110        0.0000   371516  100.00%
    520     9       -0.0000   791        0.0110        0.0000   388907  100.00%
    523    12        0.0001   975        0.0110        0.0000   406349  100.00%
    528    17        0.0000   560        0.0110        0.0000   419222  100.00%
    531    20        0.0000   968        0.0110        0.0000   454562  100.00%
    533    22        0.0000   628        0.0110        0.0000   467459  100.00%
    536    25        0.0000   640        0.0110        0.0000   478519  100.00%
    541    30        0.0001   742        0.0110        0.0000   495085  100.00%
    545    34        0.0000   718        0.0110        0.0000   510358  100.00%
Elapsed time = 274.44 sec. (309192.41 ticks, tree = 0.13 MB, solutions = 10)
    549    38       -0.0000   593        0.0110        0.0000   521427  100.00%
    553    42        0.0000   579        0.0110        0.0000   530012  100.00%
    558    47        0.0000   628        0.0110        0.0000   545208  100.00%
    561    50        0.0000   713        0.0110        0.0000   563864  100.00%
    563    52        0.0000   506        0.0110        0.0000   571872  100.00%
    567    56        0.0000   556        0.0110        0.0000   588530  100.00%
    571    60        0.0000   392        0.0110        0.0000   604874  100.00%
    576    65       -0.0000   409        0.0110        0.0000   622439  100.00%
    582    71        0.0001   701        0.0110        0.0000   642765  100.00%
    587    76        0.0000   715        0.0110        0.0000   655267  100.00%
Elapsed time = 315.96 sec. (357223.28 ticks, tree = 0.46 MB, solutions = 10)
    593    82       -0.0000   443        0.0110        0.0000   666993  100.00%
    600    89       -0.0000   427        0.0110        0.0000   679667  100.00%
    607    96       -0.0000   421        0.0110        0.0000   692370  100.00%
    613   102       -0.0000   397        0.0110        0.0000   704199  100.00%
    620   109       -0.0000   483        0.0110        0.0000   715885  100.00%
    626   115       -0.0000   460        0.0110        0.0000   729040  100.00%
    632   121        0.0000   618        0.0110        0.0000   742410  100.00%
    639   128        0.0002   650        0.0110        0.0000   753529  100.00%
    645   134        0.0002   648        0.0110        0.0000   768446  100.00%
    652   141        0.0010   637        0.0110        0.0000   781137  100.00%
Elapsed time = 376.38 sec. (420015.92 ticks, tree = 1.25 MB, solutions = 10)
    656   145       -0.0000   467        0.0110        0.0000   789284  100.00%
    661   150       -0.0000   481        0.0110        0.0000   805028  100.00%
    669   158        0.0010   646        0.0110        0.0000   815396  100.00%
    683   172        0.0001   522        0.0110        0.0000   820785  100.00%
    696   185        0.0010   554        0.0110        0.0000   829470  100.00%
    709   198        0.0001   519        0.0110        0.0000   835885  100.00%
    721   210        0.0010   577        0.0110        0.0000   843489  100.00%
    733   222        0.0001   543        0.0110        0.0000   848084  100.00%
    746   235        0.0010   562        0.0110        0.0000   854560  100.00%
    754   243        0.0002   555        0.0110        0.0000   859695  100.00%
Elapsed time = 413.88 sec. (460762.75 ticks, tree = 2.51 MB, solutions = 10)
    767   256        0.0002   503        0.0110        0.0000   865677  100.00%
    774   263        0.0003   588        0.0110        0.0000   874753  100.00%
    783   272        0.0010   615        0.0110        0.0000   884469  100.00%
    792   281        0.0005   551        0.0110        0.0000   891783  100.00%
    799   288        0.0006   592        0.0110        0.0000   903508  100.00%
    807   296        0.0014   631        0.0110        0.0000   916257  100.00%
    815   304        0.0014   677        0.0110        0.0000   922623  100.00%
    824   313        0.0011   639        0.0110        0.0000   932486  100.00%
    834   323        0.0008   718        0.0110        0.0000   940524  100.00%
    843   332        0.0007   681        0.0110        0.0000   947237  100.00%
Elapsed time = 451.06 sec. (501420.12 ticks, tree = 3.62 MB, solutions = 10)
    852   341        0.0014   632        0.0110        0.0000   957544  100.00%
    860   349        0.0007   648        0.0110        0.0000   966862  100.00%
    869   358        0.0013   581        0.0110        0.0000   977193  100.00%
    874   363        0.0017   568        0.0110        0.0000   984416  100.00%
    885   374        0.0010   642        0.0110        0.0000   991187  100.00%
    893   382        0.0010   601        0.0110        0.0000  1002005  100.00%
    905   394        0.0017   608        0.0110        0.0000  1011831  100.00%
    916   405        0.0030   599        0.0110        0.0000  1022095  100.00%
    926   415        0.0026   606        0.0110        0.0000  1033934  100.00%
    936   425        0.0020   572        0.0110        0.0000  1043997  100.00%
Elapsed time = 489.43 sec. (543331.80 ticks, tree = 4.77 MB, solutions = 10)
    948   437        0.0021   596        0.0110        0.0000  1050763  100.00%
    959   448        0.0030   585        0.0110        0.0000  1059474  100.00%
    969   458        0.0025   655        0.0110        0.0000  1068680  100.00%
    975   464        0.0030   598        0.0110        0.0000  1073138  100.00%
    985   474        0.0045   572        0.0110        0.0000  1085765  100.00%
    995   484        0.0040   511        0.0110        0.0000  1095919  100.00%
   1006   495        0.0045   459        0.0110        0.0000  1105768  100.00%
   1018   507        0.0050   463        0.0110        0.0000  1115422  100.00%
   1032   521        0.0070   530        0.0110        0.0000  1126570  100.00%
   1042   531        0.0060   460        0.0110        0.0000  1138514  100.00%
Elapsed time = 528.60 sec. (584220.66 ticks, tree = 6.09 MB, solutions = 10)
   1055   544        0.0082   346        0.0110        0.0000  1150082  100.00%
   1071   555        0.0095   394        0.0110        0.0000  1161860  100.00%
   1083   559        0.0000   546        0.0110        0.0000  1173100  100.00%
   1089   565        0.0002   639        0.0110        0.0000  1186713  100.00%
   1094   570        0.0000   705        0.0110        0.0000  1199670  100.00%
   1106   582        0.0010   619        0.0110        0.0000  1207398  100.00%
Starting limited solution polishing.
   1116   592        0.0010   718        0.0110        0.0000  1214551  100.00%
   1127   603        0.0000   710        0.0110        0.0000  1221083  100.00%
   1138   614        0.0000   716        0.0110        0.0000  1227940  100.00%
   1150   626        0.0000   735        0.0110        0.0000  1234278  100.00%
Elapsed time = 566.82 sec. (625180.82 ticks, tree = 7.27 MB, solutions = 10)
   1161   637        0.0001   719        0.0110        0.0000  1240701  100.00%
   1171   647        0.0001   662        0.0110        0.0000  1247661  100.00%
   1181   657        0.0001   663        0.0110        0.0000  1254912  100.00%
   1190   666        0.0010   634        0.0110        0.0000  1264193  100.00%
   1197   673        0.0001   777        0.0110        0.0000  1270829  100.00%
   1206   682        0.0002   741        0.0110        0.0000  1278946  100.00%
   1215   691        0.0002   753        0.0110        0.0000  1286804  100.00%
   1224   700        0.0020   391        0.0110        0.0000  1295670  100.00%
   1234   710        0.0020   342        0.0110        0.0000  1305489  100.00%

Zero-half cuts applied:  30
Gomory fractional cuts applied:  3

Root node processing (before b&c):
  Real time             =   20.36 sec. (24238.46 ticks)
Sequential b&c:
  Real time             =  579.64 sec. (637101.25 ticks)
                          ------------
Total (root+branch&cut) =  600.00 sec. (661339.70 ticks)
Primal number of violations:	0.011
Dual number of violations:	0
Status:	Feasible
Time:	599.99
Sequence:
	23
	8
	14
	10
	17
	1
	20
	8
	14
	10
	19
	0
	22
	6
	14
	12
	14
	6
	18
	2
	14
	8
	22
	0
	17
	10
	14
	8
	17
	3
	17
	8
	14
	12
	17
	0
	20
	8
	14
	2
	18
	8
	16
	6
	17
	5
	19
	6
	16
	6
	17
	3
	19
	8
	16
	6
	17
	5
	17
	8
	16
	6
	17
	5
	17
	8
	16
	6
	18
	4
	19
	6
	16
	6
	17
	3
	19
	8
	16
	6
	18
	4
	19
	6
	16
	7
	17
	4
	17
	12
	14
	6
	11
	14
	8
	22
	6
	14
	10
	15
	9
	20
	6
	14
	22
	7
	15
	10
	14
	8
	21
	15
	6
	20
	15
	7
	10
	14
	8
	22
	14
	6
	10
	14
	9
	17
	4
	17
	6
	16
	7
	14
	10
	14
	8
	17
	5
	17
	6
	14
	4
	17
	7
	14
	22
	6
	15
	11
	14
	8
	16
	6
	9
	16
	6
	15
	10
	9
	14
	10
	15
	6
	12
	14
	7
	4
	14
	8
	20
	14
	6
	22
	1
	17
	10
	14
	8
	18
	2
	19
	6
	16
	9
	17
	2
	17
	6
	15
	13
	14
	6
	20
	8
	15
	6
	21
	6
	14
	8
	20
